p cnf 114 374
3 -1 0
3 2 0
1 -2 -3 0
-4 1 -5 0
4 -1 -5 0
-4 -1 5 0
4 1 5 0
7 -6 0
7 2 0
6 -2 -7 0
8 -9 0
-8 -9 0
12 -10 0
12 -11 0
10 11 -12 0
-13 -9 0
-13 12 0
9 -12 13 0
-14 7 0
-14 -13 0
-7 13 14 0
-15 -5 0
-15 14 0
5 -14 15 0
-17 -10 0
-17 16 0
10 -16 17 0
-18 -15 0
-18 -17 0
15 17 18 0
3 -18 -19 0
-3 18 -19 0
3 18 19 0
-3 -18 19 0
22 -20 0
22 21 0
20 -21 -22 0
-23 19 0
-23 22 0
-19 -22 23 0
9 24 -25 0
-9 -24 -25 0
9 -24 25 0
-9 24 25 0
23 25 -26 0
-23 -25 -26 0
23 -25 26 0
-23 25 26 0
24 11 -27 0
-24 -11 -27 0
24 -11 27 0
-24 11 27 0
5 28 0
-5 28 0
29 -27 0
29 28 0
27 -28 -29 0
-30 11 -31 0
30 -11 -31 0
-30 -11 31 0
30 11 31 0
-32 -29 0
-32 -31 0
29 31 32 0
-26 -32 -33 0
26 32 -33 0
-26 32 33 0
26 -32 33 0
35 -34 0
35 28 0
34 -28 -35 0
-21 -16 -36 0
21 16 -36 0
-21 16 36 0
21 -16 36 0
8 2 -37 0
-8 -2 -37 0
8 -2 37 0
-8 2 37 0
36 37 -38 0
-36 -37 -38 0
36 -37 38 0
-36 37 38 0
-36 -38 -39 0
36 38 -39 0
-36 38 39 0
36 -38 39 0
40 -39 0
40 27 0
39 -27 -40 0
41 -35 0
41 40 0
35 -40 -41 0
-33 41 -42 0
33 -41 -42 0
-33 -41 42 0
33 41 42 0
5 -43 -44 0
-5 43 -44 0
5 43 44 0
-5 -43 44 0
-10 -44 -45 0
10 44 -45 0
-10 44 45 0
10 -44 45 0
-46 6 0
-46 -6 0
47 46 0
47 -6 0
-46 6 -47 0
48 -9 0
48 47 0
9 -47 -48 0
10 -48 -49 0
-10 48 -49 0
10 48 49 0
-10 -48 49 0
-51 -50 0
-51 -3 0
50 3 51 0
52 49 0
52 -51 0
-49 51 -52 0
-45 52 -53 0
45 -52 -53 0
-45 -52 53 0
45 52 53 0
54 24 0
54 -16 0
-24 16 -54 0
55 -50 0
55 -43 0
50 43 -55 0
-56 55 0
-56 -43 0
-55 43 56 0
-57 -50 0
-57 56 0
50 -56 57 0
-54 -57 -58 0
54 57 -58 0
-54 57 58 0
54 -57 58 0
-21 47 -59 0
21 -47 -59 0
-21 -47 59 0
21 47 59 0
60 -58 0
60 -59 0
58 59 -60 0
61 -46 0
61 -27 0
46 27 -61 0
-60 61 -62 0
60 -61 -62 0
-60 -61 62 0
60 61 62 0
-63 -9 0
-63 -20 0
9 20 63 0
-64 -27 0
-64 39 0
27 -39 64 0
-65 63 0
-65 64 0
-63 -64 65 0
-62 65 -66 0
62 -65 -66 0
-62 -65 66 0
62 65 66 0
67 53 0
67 -66 0
-53 66 -67 0
68 -6 0
68 -37 0
6 37 -68 0
69 68 0
69 56 0
-68 -56 -69 0
70 -69 0
70 50 0
69 -50 -70 0
-71 17 0
-71 -16 0
-17 16 71 0
-27 71 -72 0
27 -71 -72 0
-27 -71 72 0
27 71 72 0
73 -70 0
73 -72 0
70 72 -73 0
75 74 0
75 7 0
-74 -7 -75 0
73 75 -76 0
-73 -75 -76 0
73 -75 76 0
-73 75 76 0
-77 16 0
-77 -6 0
-16 6 77 0
-5 3 -78 0
5 -3 -78 0
-5 -3 78 0
5 3 78 0
77 78 -79 0
-77 -78 -79 0
77 -78 79 0
-77 78 79 0
-80 24 0
-80 34 0
-24 -34 80 0
81 -79 0
81 80 0
79 -80 -81 0
82 20 0
82 2 0
-20 -2 -82 0
83 12 0
83 56 0
-12 -56 -83 0
84 83 0
84 -30 0
-83 30 -84 0
-55 -12 -85 0
55 12 -85 0
-55 12 85 0
55 -12 85 0
86 -85 0
86 -55 0
85 55 -86 0
-87 27 0
-87 86 0
-27 -86 87 0
87 37 -88 0
-87 -37 -88 0
87 -37 88 0
-87 37 88 0
-84 88 -89 0
84 -88 -89 0
-84 -88 89 0
84 88 89 0
-90 82 0
-90 -89 0
-82 89 90 0
10 -20 -91 0
-10 20 -91 0
10 20 91 0
-10 -20 91 0
-92 8 0
-92 -55 0
-8 55 92 0
-93 -91 0
-93 -92 0
91 92 93 0
-94 90 0
-94 -93 0
-90 93 94 0
95 81 0
95 94 0
-81 -94 -95 0
-76 95 -96 0
76 -95 -96 0
-76 -95 96 0
76 95 96 0
-97 67 0
-97 -96 0
-67 96 97 0
-47 3 -98 0
47 -3 -98 0
-47 -3 98 0
47 3 98 0
99 4 0
99 -47 0
-4 47 -99 0
-100 20 0
-100 48 0
-20 -48 100 0
-101 99 0
-101 100 0
-99 -100 101 0
102 37 0
102 -83 0
-37 83 -102 0
-103 101 0
-103 -102 0
-101 102 103 0
98 -103 -104 0
-98 103 -104 0
98 103 104 0
-98 -103 104 0
-105 4 0
-105 43 0
-4 -43 105 0
-106 -9 0
-106 -1 0
9 1 106 0
-107 -105 0
-107 -106 0
105 106 107 0
-104 -107 -108 0
104 107 -108 0
-104 107 108 0
104 -107 108 0
-109 -34 0
-109 85 0
34 -85 109 0
110 34 0
110 85 0
-34 -85 -110 0
111 109 0
111 110 0
-109 -110 -111 0
-112 108 0
-112 111 0
-108 -111 112 0
113 -97 0
113 -112 0
97 112 -113 0
-42 -113 -114 0
42 113 -114 0
-42 113 114 0
42 -113 114 0
21 1 24 -96 0
-5 -6 -18 -56 19 -105 0
-40 -34 -1 28 -24 0
110 95 1 0
10 -102 30 -5 57 0
15 23 -114 55 -83 0
82 81 87 105 0
32 -62 -75 -22 0
6 13 0
92 -20 39 -97 -2 0
93 -12 -39 0
-72 57 0
92 103 85 0
74 37 -28 0
-4 -78 27 0
-3 103 -61 -69 4 0
-86 -7 -80 -9 0
114 -80 -105 0
71 -106 -69 0
-30 47 97 0
-12 -22 90 -20 -14 0
-88 109 0
56 33 -21 -13 0
-26 -57 76 -32 52 -75 0
-43 -31 -90 -41 -6 -107 0
110 -20 36 4 0
-78 -43 82 47 -112 0
-89 -26 -92 -99 0
15 -46 0
-111 -77 0
-113 -44 65 56 -92 68 0
-84 14 -90 0
-75 104 18 36 0
50 56 -60 0
80 92 -74 46 13 0
-110 -74 0
74 48 20 78 0
11 -14 24 -71 -22 -29 0
-30 41 -68 85 0
-112 -59 0
-112 103 0
93 -79 103 55 -9 -40 0
15 -26 -83 104 0
8 -113 10 0
77 -40 -62 0
98 4 66 -54 -57 56 0
-55 -87 79 24 0
61 14 11 -90 67 0
93 -76 47 -45 0
114 0
